sat
(model 
  (define-fun |required(ezcsp__gt(nWeight(1),ezcsp__mn(ezcsp__pl(96,50),50)))| () Bool
    false)
  (define-fun |leafPos(8,6)| () Bool
    false)
  (define-fun |nWeight(6)| () Int
    44)
  (define-fun |required(ezcsp__gt(nWeight(1),ezcsp__mn(ezcsp__pl(95,48),48)))| () Bool
    false)
  (define-fun |posColor(4,blue)| () Bool
    true)
  (define-fun |required(ezcsp__gt(nWeight(4),ezcsp__mn(ezcsp__pl(54,3),3)))| () Bool
    false)
  (define-fun |required(ezcsp__gt(nWeight(6),ezcsp__mn(ezcsp__pl(22,73),22)))| () Bool
    false)
  (define-fun |required(ezcsp__leq(nWeight(4),ezcsp__mn(ezcsp__pl(35,9),9)))| () Bool
    false)
  (define-fun |required(ezcsp__eq(nWeight(5),ezcsp__pl(nWeight(4),50)))| () Bool
    false)
  (define-fun |nWeight(5)| () Int
    153)
  (define-fun |leafPos(5,5)| () Bool
    false)
  (define-fun |478| () Bool
    false)
  (define-fun |required(ezcsp__gt(nWeight(5),ezcsp__mn(ezcsp__pl(54,3),3)))| () Bool
    false)
  (define-fun |leafPos(8,1)| () Bool
    false)
  (define-fun |required(ezcsp__leq(nWeight(1),ezcsp__mn(ezcsp__pl(95,48),48)))| () Bool
    false)
  (define-fun |required(ezcsp__eq(nWeight(6),ezcsp__pl(nWeight(5),76)))| () Bool
    false)
  (define-fun |required(ezcsp__eq(nWeight(2),153))| () Bool
    false)
  (define-fun |leafPos(3,7)| () Bool
    false)
  (define-fun |458| () Bool
    false)
  (define-fun |required(ezcsp__leq(nWeight(3),ezcsp__mn(ezcsp__pl(35,9),9)))| () Bool
    false)
  (define-fun |414| () Bool
    false)
  (define-fun |494| () Bool
    false)
  (define-fun |required(ezcsp__leq(nWeight(6),ezcsp__mn(ezcsp__pl(95,48),48)))| () Bool
    false)
  (define-fun |462| () Bool
    false)
  (define-fun |leafPos(7,3)| () Bool
    false)
  (define-fun |required(ezcsp__eq(nWeight(2),ezcsp__pl(nWeight(1),22)))| () Bool
    true)
  (define-fun |required(ezcsp__leq(nWeight(5),ezcsp__mn(ezcsp__pl(35,9),9)))| () Bool
    false)
  (define-fun |leafPos(1,6)| () Bool
    false)
  (define-fun |required(ezcsp__leq(nWeight(6),ezcsp__mn(ezcsp__pl(22,73),22)))| () Bool
    false)
  (define-fun |required(ezcsp__gt(nWeight(2),ezcsp__mn(ezcsp__pl(54,3),3)))| () Bool
    false)
  (define-fun |posColor(6,blue)| () Bool
    false)
  (define-fun |required(ezcsp__gt(nWeight(1),ezcsp__mn(ezcsp__pl(22,73),22)))| () Bool
    false)
  (define-fun |470| () Bool
    false)
  (define-fun |leafPos(4,2)| () Bool
    false)
  (define-fun |required(ezcsp__eq(nWeight(5),ezcsp__pl(nWeight(4),9)))| () Bool
    false)
  (define-fun |posColor(3,blue)| () Bool
    true)
  (define-fun |required(ezcsp__gt(nWeight(4),ezcsp__mn(ezcsp__pl(95,48),48)))| () Bool
    false)
  (define-fun |required(ezcsp__eq(nWeight(4),143))| () Bool
    false)
  (define-fun |required(ezcsp__gt(nWeight(4),ezcsp__mn(ezcsp__pl(35,9),9)))| () Bool
    false)
  (define-fun |posColor(1,green)| () Bool
    false)
  (define-fun |required(ezcsp__gt(nWeight(6),ezcsp__mn(ezcsp__pl(95,48),48)))| () Bool
    false)
  (define-fun |427| () Bool
    false)
  (define-fun |required(ezcsp__eq(nWeight(5),146))| () Bool
    false)
  (define-fun |required(ezcsp__gt(nWeight(2),ezcsp__mn(ezcsp__pl(9,93),9)))| () Bool
    false)
  (define-fun |leafPos(7,7)| () Bool
    false)
  (define-fun |required(ezcsp__gt(nWeight(3),ezcsp__mn(ezcsp__pl(77,76),76)))| () Bool
    false)
  (define-fun |required(ezcsp__eq(nWeight(2),146))| () Bool
    false)
  (define-fun |required(ezcsp__gt(nWeight(5),ezcsp__mn(ezcsp__pl(9,93),9)))| () Bool
    false)
  (define-fun |leafPos(5,7)| () Bool
    false)
  (define-fun |leafPos(3,1)| () Bool
    false)
  (define-fun |416| () Bool
    false)
  (define-fun |leafPos(2,6)| () Bool
    false)
  (define-fun |required(ezcsp__eq(nWeight(1),117))| () Bool
    false)
  (define-fun |required(ezcsp__eq(nWeight(6),ezcsp__pl(nWeight(5),69)))| () Bool
    false)
  (define-fun |required(ezcsp__eq(nWeight(1),111))| () Bool
    false)
  (define-fun |leafPos(1,5)| () Bool
    false)
  (define-fun |leafPos(2,3)| () Bool
    false)
  (define-fun |446| () Bool
    false)
  (define-fun |posColor(5,red)| () Bool
    false)
  (define-fun |415| () Bool
    false)
  (define-fun |nWeight(3)| () Int
    82)
  (define-fun |required(ezcsp__eq(nWeight(5),102))| () Bool
    false)
  (define-fun |486| () Bool
    false)
  (define-fun |required(ezcsp__eq(nWeight(7),153))| () Bool
    false)
  (define-fun |464| () Bool
    false)
  (define-fun |leafPos(7,5)| () Bool
    false)
  (define-fun |461| () Bool
    false)
  (define-fun |leafPos(4,0)| () Bool
    false)
  (define-fun |required(ezcsp__eq(nWeight(1),78))| () Bool
    false)
  (define-fun |required(ezcsp__eq(nWeight(1),44))| () Bool
    false)
  (define-fun |leafPos(6,6)| () Bool
    false)
  (define-fun |required(ezcsp__leq(nWeight(1),ezcsp__mn(ezcsp__pl(35,9),9)))| () Bool
    false)
  (define-fun |required(ezcsp__eq(nWeight(1),91))| () Bool
    false)
  (define-fun |required(ezcsp__gt(nWeight(2),ezcsp__mn(ezcsp__pl(96,50),50)))| () Bool
    false)
  (define-fun |required(ezcsp__eq(nWeight(3),44))| () Bool
    false)
  (define-fun |required(ezcsp__gt(nWeight(6),ezcsp__mn(ezcsp__pl(9,93),9)))| () Bool
    false)
  (define-fun |posColor(3,red)| () Bool
    false)
  (define-fun |431| () Bool
    false)
  (define-fun |required(ezcsp__eq(nWeight(2),169))| () Bool
    false)
  (define-fun |required(ezcsp__eq(nWeight(7),95))| () Bool
    false)
  (define-fun |required(ezcsp__leq(nWeight(5),ezcsp__mn(ezcsp__pl(96,50),50)))| () Bool
    false)
  (define-fun |432| () Bool
    false)
  (define-fun |418| () Bool
    false)
  (define-fun |required(ezcsp__eq(nWeight(1),125))| () Bool
    false)
  (define-fun |posColor(5,blue)| () Bool
    false)
  (define-fun |leafPos(4,3)| () Bool
    false)
  (define-fun |required(ezcsp__leq(nWeight(6),ezcsp__mn(ezcsp__pl(54,3),3)))| () Bool
    false)
  (define-fun |required(ezcsp__eq(nWeight(6),95))| () Bool
    false)
  (define-fun |required(ezcsp__gt(nWeight(3),ezcsp__mn(ezcsp__pl(69,100),69)))| () Bool
    false)
  (define-fun |434| () Bool
    false)
  (define-fun |required(ezcsp__eq(nWeight(1),127))| () Bool
    false)
  (define-fun |required(ezcsp__leq(nWeight(6),ezcsp__mn(ezcsp__pl(9,93),9)))| () Bool
    false)
  (define-fun |required(ezcsp__gt(nWeight(6),ezcsp__mn(ezcsp__pl(96,50),50)))| () Bool
    false)
  (define-fun |required(ezcsp__eq(nWeight(6),ezcsp__pl(nWeight(5),3)))| () Bool
    false)
  (define-fun |required(ezcsp__gt(nWeight(3),ezcsp__mn(ezcsp__pl(96,50),50)))| () Bool
    false)
  (define-fun |467| () Bool
    false)
  (define-fun |leafPos(2,7)| () Bool
    true)
  (define-fun |required(ezcsp__eq(nWeight(1),12))| () Bool
    true)
  (define-fun |required(ezcsp__eq(nWeight(7),ezcsp__pl(nWeight(6),76)))| () Bool
    false)
  (define-fun |489| () Bool
    false)
  (define-fun |required(ezcsp__eq(nWeight(5),ezcsp__pl(nWeight(4),69)))| () Bool
    false)
  (define-fun |required(ezcsp__leq(nWeight(5),ezcsp__mn(ezcsp__pl(54,3),3)))| () Bool
    false)
  (define-fun |required(ezcsp__leq(nWeight(5),ezcsp__mn(ezcsp__pl(9,93),9)))| () Bool
    false)
  (define-fun |required(ezcsp__gt(nWeight(4),ezcsp__mn(ezcsp__pl(96,50),50)))| () Bool
    false)
  (define-fun |leafPos(2,1)| () Bool
    false)
  (define-fun |leafPos(4,6)| () Bool
    true)
  (define-fun |required(ezcsp__leq(nWeight(3),ezcsp__mn(ezcsp__pl(54,3),3)))| () Bool
    false)
  (define-fun |leafPos(5,0)| () Bool
    true)
  (define-fun |required(ezcsp__eq(nWeight(4),ezcsp__pl(nWeight(3),3)))| () Bool
    false)
  (define-fun |posColor(2,blue)| () Bool
    false)
  (define-fun |required(ezcsp__gt(nWeight(1),ezcsp__mn(ezcsp__pl(69,100),69)))| () Bool
    false)
  (define-fun |required(ezcsp__leq(nWeight(4),ezcsp__mn(ezcsp__pl(69,100),69)))| () Bool
    false)
  (define-fun |leafPos(7,4)| () Bool
    false)
  (define-fun |required(ezcsp__gt(nWeight(3),ezcsp__mn(ezcsp__pl(22,73),22)))| () Bool
    false)
  (define-fun |468| () Bool
    false)
  (define-fun |426| () Bool
    false)
  (define-fun |required(ezcsp__leq(nWeight(5),ezcsp__mn(ezcsp__pl(95,48),48)))| () Bool
    false)
  (define-fun |posColor(2,green)| () Bool
    false)
  (define-fun |428| () Bool
    false)
  (define-fun |required(ezcsp__leq(nWeight(1),ezcsp__mn(ezcsp__pl(77,76),76)))| () Bool
    false)
  (define-fun |leafPos(4,5)| () Bool
    false)
  (define-fun |required(ezcsp__eq(nWeight(2),ezcsp__pl(nWeight(1),3)))| () Bool
    false)
  (define-fun |required(ezcsp__leq(nWeight(2),ezcsp__mn(ezcsp__pl(69,100),69)))| () Bool
    false)
  (define-fun |480| () Bool
    false)
  (define-fun |required(ezcsp__eq(nWeight(1),146))| () Bool
    false)
  (define-fun |required(ezcsp__eq(nWeight(1),63))| () Bool
    false)
  (define-fun |required(ezcsp__leq(nWeight(2),ezcsp__mn(ezcsp__pl(22,73),22)))| () Bool
    false)
  (define-fun |required(ezcsp__eq(nWeight(5),169))| () Bool
    false)
  (define-fun |leafPos(6,7)| () Bool
    false)
  (define-fun |413| () Bool
    false)
  (define-fun |required(ezcsp__leq(nWeight(4),ezcsp__mn(ezcsp__pl(77,76),76)))| () Bool
    false)
  (define-fun |459| () Bool
    false)
  (define-fun |leafPos(6,2)| () Bool
    true)
  (define-fun |leafPos(4,1)| () Bool
    false)
  (define-fun |required(ezcsp__leq(nWeight(3),ezcsp__mn(ezcsp__pl(22,73),22)))| () Bool
    false)
  (define-fun |required(ezcsp__eq(nWeight(1),80))| () Bool
    false)
  (define-fun |required(ezcsp__eq(nWeight(2),ezcsp__pl(nWeight(1),69)))| () Bool
    false)
  (define-fun |required(ezcsp__gt(nWeight(5),ezcsp__mn(ezcsp__pl(96,50),50)))| () Bool
    false)
  (define-fun |required(ezcsp__eq(nWeight(1),59))| () Bool
    false)
  (define-fun |455| () Bool
    false)
  (define-fun |leafPos(8,5)| () Bool
    false)
  (define-fun |required(ezcsp__leq(nWeight(6),ezcsp__mn(ezcsp__pl(35,9),9)))| () Bool
    false)
  (define-fun |required(ezcsp__eq(nWeight(1),86))| () Bool
    false)
  (define-fun |444| () Bool
    false)
  (define-fun |437| () Bool
    false)
  (define-fun |433| () Bool
    false)
  (define-fun |required(ezcsp__eq(nWeight(3),ezcsp__pl(nWeight(2),48)))| () Bool
    true)
  (define-fun |leafPos(2,5)| () Bool
    false)
  (define-fun |required(ezcsp__eq(nWeight(7),146))| () Bool
    false)
  (define-fun |required(ezcsp__eq(nWeight(3),102))| () Bool
    false)
  (define-fun |posColor(4,green)| () Bool
    false)
  (define-fun |required(ezcsp__gt(nWeight(2),ezcsp__mn(ezcsp__pl(35,9),9)))| () Bool
    false)
  (define-fun |leafPos(4,7)| () Bool
    false)
  (define-fun |required(ezcsp__leq(nWeight(6),ezcsp__mn(ezcsp__pl(69,100),69)))| () Bool
    true)
  (define-fun |required(ezcsp__eq(nWeight(4),ezcsp__pl(nWeight(3),9)))| () Bool
    false)
  (define-fun |required(ezcsp__gt(nWeight(2),ezcsp__mn(ezcsp__pl(77,76),76)))| () Bool
    false)
  (define-fun |leafPos(7,0)| () Bool
    false)
  (define-fun |required(ezcsp__eq(nWeight(4),ezcsp__pl(nWeight(3),69)))| () Bool
    false)
  (define-fun |required(ezcsp__eq(nWeight(7),57))| () Bool
    false)
  (define-fun |required(ezcsp__eq(nWeight(5),44))| () Bool
    false)
  (define-fun |422| () Bool
    false)
  (define-fun |required(ezcsp__eq(nWeight(7),ezcsp__pl(nWeight(6),48)))| () Bool
    false)
  (define-fun |required(ezcsp__eq(nWeight(1),171))| () Bool
    false)
  (define-fun |451| () Bool
    false)
  (define-fun |required(ezcsp__eq(nWeight(3),95))| () Bool
    false)
  (define-fun |required(ezcsp__leq(nWeight(5),ezcsp__mn(ezcsp__pl(22,73),22)))| () Bool
    false)
  (define-fun |required(ezcsp__eq(nWeight(1),102))| () Bool
    false)
  (define-fun |required(ezcsp__eq(nWeight(6),57))| () Bool
    false)
  (define-fun |required(ezcsp__eq(nWeight(1),143))| () Bool
    false)
  (define-fun |leafPos(2,4)| () Bool
    false)
  (define-fun |required(ezcsp__eq(nWeight(2),102))| () Bool
    false)
  (define-fun |posColor(6,red)| () Bool
    false)
  (define-fun |482| () Bool
    false)
  (define-fun |required(ezcsp__eq(nWeight(3),57))| () Bool
    false)
  (define-fun |450| () Bool
    false)
  (define-fun |required(ezcsp__eq(nWeight(7),143))| () Bool
    false)
  (define-fun |required(ezcsp__eq(nWeight(1),99))| () Bool
    false)
  (define-fun |441| () Bool
    false)
  (define-fun |required(ezcsp__eq(nWeight(6),146))| () Bool
    false)
  (define-fun |required(ezcsp__eq(nWeight(4),ezcsp__pl(nWeight(3),50)))| () Bool
    true)
  (define-fun |required(ezcsp__eq(nWeight(3),169))| () Bool
    false)
  (define-fun |479| () Bool
    false)
  (define-fun |required(ezcsp__eq(nWeight(6),102))| () Bool
    false)
  (define-fun |485| () Bool
    false)
  (define-fun |430| () Bool
    false)
  (define-fun |required(ezcsp__gt(nWeight(1),ezcsp__mn(ezcsp__pl(77,76),76)))| () Bool
    false)
  (define-fun |required(ezcsp__eq(nWeight(1),98))| () Bool
    false)
  (define-fun |required(ezcsp__gt(nWeight(4),ezcsp__mn(ezcsp__pl(22,73),22)))| () Bool
    false)
  (define-fun |required(ezcsp__eq(nWeight(5),ezcsp__pl(nWeight(4),22)))| () Bool
    false)
  (define-fun |447| () Bool
    false)
  (define-fun |required(ezcsp__eq(nWeight(1),76))| () Bool
    false)
  (define-fun |488| () Bool
    false)
  (define-fun |required(ezcsp__eq(nWeight(6),ezcsp__pl(nWeight(5),22)))| () Bool
    false)
  (define-fun |leafPos(5,1)| () Bool
    false)
  (define-fun |required(ezcsp__eq(nWeight(5),143))| () Bool
    false)
  (define-fun |posColor(1,blue)| () Bool
    true)
  (define-fun |required(ezcsp__gt(nWeight(5),ezcsp__mn(ezcsp__pl(35,9),9)))| () Bool
    true)
  (define-fun |required(ezcsp__leq(nWeight(4),ezcsp__mn(ezcsp__pl(95,48),48)))| () Bool
    false)
  (define-fun |472| () Bool
    false)
  (define-fun |required(ezcsp__eq(nWeight(6),153))| () Bool
    false)
  (define-fun |posColor(1,red)| () Bool
    false)
  (define-fun |required(ezcsp__leq(nWeight(4),ezcsp__mn(ezcsp__pl(54,3),3)))| () Bool
    false)
  (define-fun |leafPos(1,0)| () Bool
    false)
  (define-fun |492| () Bool
    false)
  (define-fun |454| () Bool
    false)
  (define-fun |440| () Bool
    false)
  (define-fun |leafPos(6,3)| () Bool
    false)
  (define-fun |leafPos(7,1)| () Bool
    true)
  (define-fun |leafPos(8,7)| () Bool
    false)
  (define-fun |required(ezcsp__gt(nWeight(6),ezcsp__mn(ezcsp__pl(69,100),69)))| () Bool
    false)
  (define-fun |leafPos(6,5)| () Bool
    false)
  (define-fun |posColor(7,green)| () Bool
    false)
  (define-fun |required(ezcsp__leq(nWeight(4),ezcsp__mn(ezcsp__pl(9,93),9)))| () Bool
    false)
  (define-fun |required(ezcsp__leq(nWeight(2),ezcsp__mn(ezcsp__pl(95,48),48)))| () Bool
    true)
  (define-fun |leafPos(1,1)| () Bool
    false)
  (define-fun |419| () Bool
    false)
  (define-fun |490| () Bool
    false)
  (define-fun |required(ezcsp__eq(nWeight(1),130))| () Bool
    false)
  (define-fun |required(ezcsp__eq(nWeight(7),ezcsp__pl(nWeight(6),9)))| () Bool
    false)
  (define-fun |417| () Bool
    false)
  (define-fun |476| () Bool
    false)
  (define-fun |477| () Bool
    false)
  (define-fun |leafPos(3,6)| () Bool
    false)
  (define-fun |required(ezcsp__eq(nWeight(6),ezcsp__pl(nWeight(5),48)))| () Bool
    false)
  (define-fun |leafPos(3,5)| () Bool
    true)
  (define-fun |posColor(2,red)| () Bool
    true)
  (define-fun |required(ezcsp__eq(nWeight(3),ezcsp__pl(nWeight(2),76)))| () Bool
    false)
  (define-fun |438| () Bool
    false)
  (define-fun |leafPos(5,2)| () Bool
    false)
  (define-fun |leafPos(4,4)| () Bool
    false)
  (define-fun |required(ezcsp__eq(nWeight(2),ezcsp__pl(nWeight(1),50)))| () Bool
    false)
  (define-fun |leafPos(3,2)| () Bool
    false)
  (define-fun |required(ezcsp__leq(nWeight(2),ezcsp__mn(ezcsp__pl(77,76),76)))| () Bool
    false)
  (define-fun |required(ezcsp__eq(nWeight(7),102))| () Bool
    false)
  (define-fun |required(ezcsp__leq(nWeight(1),ezcsp__mn(ezcsp__pl(9,93),9)))| () Bool
    false)
  (define-fun |required(ezcsp__gt(nWeight(2),ezcsp__mn(ezcsp__pl(95,48),48)))| () Bool
    false)
  (define-fun |495| () Bool
    false)
  (define-fun |posColor(7,blue)| () Bool
    false)
  (define-fun |required(ezcsp__eq(nWeight(6),ezcsp__pl(nWeight(5),9)))| () Bool
    false)
  (define-fun |required(ezcsp__leq(nWeight(3),ezcsp__mn(ezcsp__pl(96,50),50)))| () Bool
    true)
  (define-fun |leafPos(6,1)| () Bool
    false)
  (define-fun |required(ezcsp__gt(nWeight(4),ezcsp__mn(ezcsp__pl(77,76),76)))| () Bool
    true)
  (define-fun |required(ezcsp__leq(nWeight(2),ezcsp__mn(ezcsp__pl(54,3),3)))| () Bool
    false)
  (define-fun |leafPos(2,0)| () Bool
    false)
  (define-fun |required(ezcsp__eq(nWeight(1),118))| () Bool
    false)
  (define-fun |required(ezcsp__eq(nWeight(7),ezcsp__pl(nWeight(6),69)))| () Bool
    true)
  (define-fun |required(ezcsp__eq(nWeight(2),95))| () Bool
    false)
  (define-fun |required(ezcsp__gt(nWeight(3),ezcsp__mn(ezcsp__pl(95,48),48)))| () Bool
    false)
  (define-fun |posColor(7,red)| () Bool
    true)
  (define-fun |posColor(6,green)| () Bool
    true)
  (define-fun |required(ezcsp__leq(nWeight(4),ezcsp__mn(ezcsp__pl(96,50),50)))| () Bool
    false)
  (define-fun |required(ezcsp__gt(nWeight(3),ezcsp__mn(ezcsp__pl(54,3),3)))| () Bool
    false)
  (define-fun |required(ezcsp__leq(nWeight(1),ezcsp__mn(ezcsp__pl(22,73),22)))| () Bool
    true)
  (define-fun |required(ezcsp__gt(nWeight(4),ezcsp__mn(ezcsp__pl(9,93),9)))| () Bool
    false)
  (define-fun |required(ezcsp__eq(nWeight(1),25))| () Bool
    false)
  (define-fun |412| () Bool
    false)
  (define-fun |required(ezcsp__eq(nWeight(1),38))| () Bool
    false)
  (define-fun |required(ezcsp__gt(nWeight(2),ezcsp__mn(ezcsp__pl(22,73),22)))| () Bool
    false)
  (define-fun |required(ezcsp__gt(nWeight(3),ezcsp__mn(ezcsp__pl(9,93),9)))| () Bool
    false)
  (define-fun |required(ezcsp__gt(nWeight(3),ezcsp__mn(ezcsp__pl(35,9),9)))| () Bool
    false)
  (define-fun |required(ezcsp__eq(nWeight(5),ezcsp__pl(nWeight(4),76)))| () Bool
    false)
  (define-fun |required(ezcsp__leq(nWeight(2),ezcsp__mn(ezcsp__pl(96,50),50)))| () Bool
    false)
  (define-fun |required(ezcsp__gt(nWeight(1),ezcsp__mn(ezcsp__pl(9,93),9)))| () Bool
    false)
  (define-fun |435| () Bool
    false)
  (define-fun |required(ezcsp__eq(nWeight(1),169))| () Bool
    false)
  (define-fun |required(ezcsp__gt(nWeight(1),ezcsp__mn(ezcsp__pl(35,9),9)))| () Bool
    false)
  (define-fun |452| () Bool
    false)
  (define-fun |required(ezcsp__eq(nWeight(7),44))| () Bool
    false)
  (define-fun |481| () Bool
    false)
  (define-fun |required(ezcsp__eq(nWeight(4),95))| () Bool
    false)
  (define-fun |required(ezcsp__eq(nWeight(7),169))| () Bool
    false)
  (define-fun |leafPos(2,2)| () Bool
    false)
  (define-fun |required(ezcsp__leq(nWeight(3),ezcsp__mn(ezcsp__pl(9,93),9)))| () Bool
    false)
  (define-fun |leafPos(3,0)| () Bool
    false)
  (define-fun |484| () Bool
    false)
  (define-fun |required(ezcsp__eq(nWeight(5),57))| () Bool
    false)
  (define-fun |required(ezcsp__eq(nWeight(3),ezcsp__pl(nWeight(2),3)))| () Bool
    false)
  (define-fun |required(ezcsp__eq(nWeight(3),ezcsp__pl(nWeight(2),22)))| () Bool
    false)
  (define-fun |457| () Bool
    false)
  (define-fun |required(ezcsp__gt(nWeight(6),ezcsp__mn(ezcsp__pl(54,3),3)))| () Bool
    false)
  (define-fun |leafPos(8,2)| () Bool
    false)
  (define-fun |required(ezcsp__gt(nWeight(2),ezcsp__mn(ezcsp__pl(69,100),69)))| () Bool
    false)
  (define-fun |leafPos(7,6)| () Bool
    false)
  (define-fun |required(ezcsp__leq(nWeight(5),ezcsp__mn(ezcsp__pl(69,100),69)))| () Bool
    false)
  (define-fun |required(ezcsp__leq(nWeight(3),ezcsp__mn(ezcsp__pl(77,76),76)))| () Bool
    false)
  (define-fun |required(ezcsp__eq(nWeight(1),70))| () Bool
    false)
  (define-fun |required(ezcsp__eq(nWeight(5),ezcsp__pl(nWeight(4),3)))| () Bool
    false)
  (define-fun |required(ezcsp__eq(nWeight(1),138))| () Bool
    false)
  (define-fun |required(ezcsp__gt(nWeight(1),ezcsp__mn(ezcsp__pl(54,3),3)))| () Bool
    false)
  (define-fun |required(ezcsp__gt(nWeight(4),ezcsp__mn(ezcsp__pl(69,100),69)))| () Bool
    false)
  (define-fun |leafPos(6,4)| () Bool
    false)
  (define-fun |required(ezcsp__eq(nWeight(1),95))| () Bool
    false)
  (define-fun |required(ezcsp__eq(nWeight(3),153))| () Bool
    false)
  (define-fun |required(ezcsp__eq(nWeight(4),57))| () Bool
    false)
  (define-fun |leafPos(1,2)| () Bool
    false)
  (define-fun |required(ezcsp__eq(nWeight(1),145))| () Bool
    false)
  (define-fun |required(ezcsp__leq(nWeight(2),ezcsp__mn(ezcsp__pl(9,93),9)))| () Bool
    false)
  (define-fun |required(ezcsp__eq(nWeight(4),153))| () Bool
    false)
  (define-fun |required(ezcsp__gt(nWeight(5),ezcsp__mn(ezcsp__pl(77,76),76)))| () Bool
    false)
  (define-fun |required(ezcsp__leq(nWeight(1),ezcsp__mn(ezcsp__pl(54,3),3)))| () Bool
    false)
  (define-fun |required(ezcsp__eq(nWeight(5),95))| () Bool
    false)
  (define-fun |required(ezcsp__eq(nWeight(7),ezcsp__pl(nWeight(6),3)))| () Bool
    false)
  (define-fun |nWeight(1)| () Int
    12)
  (define-fun |required(ezcsp__eq(nWeight(2),ezcsp__pl(nWeight(1),48)))| () Bool
    false)
  (define-fun |required(ezcsp__eq(nWeight(4),169))| () Bool
    false)
  (define-fun |required(ezcsp__eq(nWeight(4),ezcsp__pl(nWeight(3),22)))| () Bool
    false)
  (define-fun |493| () Bool
    false)
  (define-fun |required(ezcsp__eq(nWeight(6),169))| () Bool
    false)
  (define-fun |420| () Bool
    false)
  (define-fun |required(ezcsp__eq(nWeight(3),143))| () Bool
    false)
  (define-fun |required(ezcsp__eq(nWeight(6),44))| () Bool
    true)
  (define-fun |required(ezcsp__eq(nWeight(5),153))| () Bool
    true)
  (define-fun |required(ezcsp__eq(nWeight(6),143))| () Bool
    false)
  (define-fun |required(ezcsp__eq(nWeight(7),ezcsp__pl(nWeight(6),50)))| () Bool
    false)
  (define-fun |required(ezcsp__leq(nWeight(3),ezcsp__mn(ezcsp__pl(69,100),69)))| () Bool
    false)
  (define-fun |required(ezcsp__eq(nWeight(1),57))| () Bool
    false)
  (define-fun |required(ezcsp__eq(nWeight(2),ezcsp__pl(nWeight(1),9)))| () Bool
    false)
  (define-fun |442| () Bool
    false)
  (define-fun |469| () Bool
    false)
  (define-fun |required(ezcsp__eq(nWeight(4),ezcsp__pl(nWeight(3),76)))| () Bool
    false)
  (define-fun |required(ezcsp__leq(nWeight(5),ezcsp__mn(ezcsp__pl(77,76),76)))| () Bool
    false)
  (define-fun |required(ezcsp__eq(nWeight(4),44))| () Bool
    false)
  (define-fun |453| () Bool
    false)
  (define-fun |439| () Bool
    false)
  (define-fun |leafPos(1,3)| () Bool
    false)
  (define-fun |423| () Bool
    false)
  (define-fun |443| () Bool
    false)
  (define-fun |leafPos(3,4)| () Bool
    false)
  (define-fun |473| () Bool
    false)
  (define-fun |leafPos(8,3)| () Bool
    true)
  (define-fun |required(ezcsp__eq(nWeight(1),105))| () Bool
    false)
  (define-fun |required(ezcsp__leq(nWeight(1),ezcsp__mn(ezcsp__pl(69,100),69)))| () Bool
    false)
  (define-fun |nWeight(7)| () Int
    113)
  (define-fun |424| () Bool
    false)
  (define-fun |required(ezcsp__leq(nWeight(2),ezcsp__mn(ezcsp__pl(35,9),9)))| () Bool
    false)
  (define-fun |required(ezcsp__eq(nWeight(2),57))| () Bool
    false)
  (define-fun |leafPos(5,3)| () Bool
    false)
  (define-fun |required(ezcsp__eq(nWeight(4),ezcsp__pl(nWeight(3),48)))| () Bool
    false)
  (define-fun |required(ezcsp__gt(nWeight(5),ezcsp__mn(ezcsp__pl(95,48),48)))| () Bool
    false)
  (define-fun |460| () Bool
    false)
  (define-fun |required(ezcsp__gt(nWeight(6),ezcsp__mn(ezcsp__pl(35,9),9)))| () Bool
    false)
  (define-fun |456| () Bool
    false)
  (define-fun |445| () Bool
    false)
  (define-fun |required(ezcsp__eq(nWeight(6),ezcsp__pl(nWeight(5),50)))| () Bool
    false)
  (define-fun |required(ezcsp__eq(nWeight(2),143))| () Bool
    false)
  (define-fun |required(ezcsp__eq(nWeight(1),31))| () Bool
    false)
  (define-fun |required(ezcsp__eq(nWeight(2),ezcsp__pl(nWeight(1),76)))| () Bool
    false)
  (define-fun |required(ezcsp__gt(nWeight(5),ezcsp__mn(ezcsp__pl(69,100),69)))| () Bool
    false)
  (define-fun |required(ezcsp__gt(nWeight(6),ezcsp__mn(ezcsp__pl(77,76),76)))| () Bool
    false)
  (define-fun |required(ezcsp__eq(nWeight(1),172))| () Bool
    false)
  (define-fun |448| () Bool
    false)
  (define-fun |leafPos(5,4)| () Bool
    false)
  (define-fun |required(ezcsp__eq(nWeight(2),44))| () Bool
    false)
  (define-fun |leafPos(1,7)| () Bool
    false)
  (define-fun |leafPos(1,4)| () Bool
    true)
  (define-fun |required(ezcsp__eq(nWeight(4),102))| () Bool
    false)
  (define-fun |required(ezcsp__leq(nWeight(4),ezcsp__mn(ezcsp__pl(22,73),22)))| () Bool
    false)
  (define-fun |483| () Bool
    false)
  (define-fun |474| () Bool
    false)
  (define-fun |required(ezcsp__eq(nWeight(5),ezcsp__pl(nWeight(4),48)))| () Bool
    false)
  (define-fun |required(ezcsp__leq(nWeight(3),ezcsp__mn(ezcsp__pl(95,48),48)))| () Bool
    false)
  (define-fun |471| () Bool
    false)
  (define-fun |421| () Bool
    false)
  (define-fun |466| () Bool
    false)
  (define-fun |436| () Bool
    false)
  (define-fun |leafPos(6,0)| () Bool
    false)
  (define-fun |leafPos(7,2)| () Bool
    false)
  (define-fun |491| () Bool
    false)
  (define-fun |posColor(3,green)| () Bool
    false)
  (define-fun |required(ezcsp__leq(nWeight(6),ezcsp__mn(ezcsp__pl(77,76),76)))| () Bool
    false)
  (define-fun |475| () Bool
    false)
  (define-fun |465| () Bool
    false)
  (define-fun |required(ezcsp__eq(nWeight(1),153))| () Bool
    false)
  (define-fun |449| () Bool
    false)
  (define-fun |required(ezcsp__eq(nWeight(3),ezcsp__pl(nWeight(2),9)))| () Bool
    false)
  (define-fun |leafPos(8,0)| () Bool
    false)
  (define-fun |required(ezcsp__gt(nWeight(5),ezcsp__mn(ezcsp__pl(22,73),22)))| () Bool
    false)
  (define-fun |required(ezcsp__eq(nWeight(1),119))| () Bool
    false)
  (define-fun |required(ezcsp__eq(nWeight(1),123))| () Bool
    false)
  (define-fun |496| () Bool
    false)
  (define-fun |posColor(5,green)| () Bool
    true)
  (define-fun |425| () Bool
    false)
  (define-fun |required(ezcsp__eq(nWeight(1),83))| () Bool
    false)
  (define-fun |required(ezcsp__leq(nWeight(6),ezcsp__mn(ezcsp__pl(96,50),50)))| () Bool
    false)
  (define-fun |required(ezcsp__eq(nWeight(1),104))| () Bool
    false)
  (define-fun |leafPos(8,4)| () Bool
    false)
  (define-fun |required(ezcsp__eq(nWeight(3),146))| () Bool
    false)
  (define-fun |required(ezcsp__eq(nWeight(1),18))| () Bool
    false)
  (define-fun |required(ezcsp__eq(nWeight(3),ezcsp__pl(nWeight(2),50)))| () Bool
    false)
  (define-fun |required(ezcsp__eq(nWeight(3),ezcsp__pl(nWeight(2),69)))| () Bool
    false)
  (define-fun |required(ezcsp__eq(nWeight(1),85))| () Bool
    false)
  (define-fun |487| () Bool
    false)
  (define-fun |required(ezcsp__eq(nWeight(1),72))| () Bool
    false)
  (define-fun |leafPos(3,3)| () Bool
    false)
  (define-fun |required(ezcsp__eq(nWeight(1),164))| () Bool
    false)
  (define-fun |posColor(4,red)| () Bool
    false)
  (define-fun |leafPos(5,6)| () Bool
    false)
  (define-fun |required(ezcsp__eq(nWeight(7),ezcsp__pl(nWeight(6),22)))| () Bool
    false)
  (define-fun |411| () Bool
    false)
  (define-fun |required(ezcsp__eq(nWeight(4),146))| () Bool
    false)
  (define-fun |429| () Bool
    true)
  (define-fun |required(ezcsp__eq(nWeight(1),144))| () Bool
    false)
  (define-fun |nWeight(4)| () Int
    132)
  (define-fun |required(ezcsp__eq(nWeight(1),165))| () Bool
    false)
  (define-fun |463| () Bool
    false)
  (define-fun |required(ezcsp__leq(nWeight(1),ezcsp__mn(ezcsp__pl(96,50),50)))| () Bool
    false)
  (define-fun |nWeight(2)| () Int
    34)
  (define-fun |410| () Bool
    true)
  (define-fun |label_order(nWeight(1),1)| () Bool
    true)
  (define-fun |label_order(nWeight(2),1)| () Bool
    true)
  (define-fun |label_order(nWeight(3),1)| () Bool
    true)
  (define-fun |label_order(nWeight(4),1)| () Bool
    true)
  (define-fun |label_order(nWeight(5),1)| () Bool
    true)
  (define-fun |label_order(nWeight(6),1)| () Bool
    true)
  (define-fun |label_order(nWeight(7),1)| () Bool
    true)
  (define-fun |required(ezcsp__sum(list(nWeight,1),ezcsp__leq,570))| () Bool
    true)
  (define-fun |172| () Bool
    true)
  (define-fun |171| () Bool
    true)
  (define-fun |167| () Bool
    true)
  (define-fun |166| () Bool
    true)
  (define-fun |162| () Bool
    true)
  (define-fun |161| () Bool
    true)
  (define-fun |157| () Bool
    true)
  (define-fun |156| () Bool
    true)
  (define-fun |152| () Bool
    true)
  (define-fun |151| () Bool
    true)
  (define-fun |147| () Bool
    true)
  (define-fun |146| () Bool
    true)
  (define-fun |139| () Bool
    true)
  (define-fun |138| () Bool
    true)
  (define-fun |129| () Bool
    true)
  (define-fun |128| () Bool
    true)
  (define-fun |119| () Bool
    true)
  (define-fun |118| () Bool
    true)
  (define-fun |109| () Bool
    true)
  (define-fun |108| () Bool
    true)
  (define-fun |99| () Bool
    true)
  (define-fun |98| () Bool
    true)
  (define-fun |89| () Bool
    true)
  (define-fun |88| () Bool
    true)
  (define-fun |79| () Bool
    true)
  (define-fun |78| () Bool
    true)
  (define-fun |69| () Bool
    false)
  (define-fun |68| () Bool
    true)
  (define-fun |67| () Bool
    true)
  (define-fun |location(7)| () Bool
    true)
  (define-fun |location(6)| () Bool
    true)
  (define-fun |location(5)| () Bool
    true)
  (define-fun |location(4)| () Bool
    true)
  (define-fun |location(3)| () Bool
    true)
  (define-fun |location(2)| () Bool
    true)
  (define-fun |location(1)| () Bool
    true)
  (define-fun |leafCost(1,50)| () Bool
    true)
  (define-fun |leafCost(3,76)| () Bool
    true)
  (define-fun |leafCost(4,9)| () Bool
    true)
  (define-fun |leafCost(7,3)| () Bool
    true)
  (define-fun |leafCost(8,48)| () Bool
    true)
  (define-fun |leafCost(2,69)| () Bool
    true)
  (define-fun |leafCost(5,9)| () Bool
    true)
  (define-fun |leafCost(6,22)| () Bool
    true)
  (define-fun |cspvar(nWeight(1),0,570)| () Bool
    true)
  (define-fun |cspvar(nWeight(2),0,570)| () Bool
    true)
  (define-fun |cspvar(nWeight(3),0,570)| () Bool
    true)
  (define-fun |cspvar(nWeight(4),0,570)| () Bool
    true)
  (define-fun |cspvar(nWeight(5),0,570)| () Bool
    true)
  (define-fun |cspvar(nWeight(6),0,570)| () Bool
    true)
  (define-fun |cspvar(nWeight(7),0,570)| () Bool
    true)
  (define-fun |coloredPos(7)| () Bool
    true)
  (define-fun |coloredPos(6)| () Bool
    true)
  (define-fun |coloredPos(5)| () Bool
    true)
  (define-fun |coloredPos(4)| () Bool
    true)
  (define-fun |coloredPos(3)| () Bool
    true)
  (define-fun |coloredPos(2)| () Bool
    true)
  (define-fun |coloredPos(1)| () Bool
    true)
  (define-fun |leaf(1)| () Bool
    true)
  (define-fun |leaf(2)| () Bool
    true)
  (define-fun |leaf(3)| () Bool
    true)
  (define-fun |leaf(4)| () Bool
    true)
  (define-fun |leaf(5)| () Bool
    true)
  (define-fun |leaf(6)| () Bool
    true)
  (define-fun |leaf(7)| () Bool
    true)
  (define-fun |leaf(8)| () Bool
    true)
  (define-fun |max_total_weight(570)| () Bool
    true)
  (define-fun |num(8)| () Bool
    true)
  (define-fun |innerNode(7)| () Bool
    true)
  (define-fun |innerNode(6)| () Bool
    true)
  (define-fun |innerNode(5)| () Bool
    true)
  (define-fun |innerNode(4)| () Bool
    true)
  (define-fun |innerNode(3)| () Bool
    true)
  (define-fun |innerNode(2)| () Bool
    true)
  (define-fun |innerNode(1)| () Bool
    true)
  (define-fun |leafWeightCardinality(8,95,48)| () Bool
    true)
  (define-fun |leafWeightCardinality(7,54,3)| () Bool
    true)
  (define-fun |leafWeightCardinality(6,22,73)| () Bool
    true)
  (define-fun |leafWeightCardinality(5,9,93)| () Bool
    true)
  (define-fun |leafWeightCardinality(4,35,9)| () Bool
    true)
  (define-fun |leafWeightCardinality(3,77,76)| () Bool
    true)
  (define-fun |leafWeightCardinality(2,69,100)| () Bool
    true)
  (define-fun |leafWeightCardinality(1,96,50)| () Bool
    true)
  (define-fun |location(0)| () Bool
    true)
  (define-fun |color(green)| () Bool
    true)
  (define-fun |color(blue)| () Bool
    true)
  (define-fun |color(red)| () Bool
    true)
)
